(declare-const a Real)
(declare-const b Real)
(declare-const c Real)
(assert (= (* a b c) 1))
(assert (> a 0))
(assert (> b 0))
(assert (> c 0))
(assert (not (<= (+ (* -4 (pow a 4)) (* -16 (pow a (/ 1 6)) (pow b (/ 23 6))) (* -4 (pow a (/ 10 3)) (pow b (/ 2 3))) (* 3 (pow a 2) (pow b 2)) (* 3 (pow a (/ 2 3)) (pow b (/ 10 3))) (* 6 a (pow b 3)) (* 6 (pow a (/ 4 3)) (pow b (/ 8 3))) (* 6 (pow a (/ 5 3)) (pow b (/ 7 3)))) 0)))
(check-sat)
(get-model)
(exit)